Version identifier: 12.10.0.0 | 2019-11-26 | 843d4de
CPXPARAM_WorkMem                                 28672
Tried aggregator 2 times.
Aggregator did 60 substitutions.
Reduced MIP has 203 rows, 240 columns, and 906 nonzeros.
Reduced MIP has 240 binaries, 0 generals, 0 SOSs, and 0 indicators.
Presolve time = 0,00 sec. (0,86 ticks)
Found incumbent of value 978,000000 after 0,00 sec. (1,57 ticks)
Probing time = 0,00 sec. (0,31 ticks)
Tried aggregator 1 time.
Detecting symmetries...
MIP Presolve eliminated 48 rows and 0 columns.
MIP Presolve added 96 rows and 0 columns.
Reduced MIP has 251 rows, 240 columns, and 954 nonzeros.
Reduced MIP has 240 binaries, 0 generals, 0 SOSs, and 0 indicators.
Presolve time = 0,00 sec. (1,16 ticks)
Probing time = 0,00 sec. (0,30 ticks)
Clique table members: 626.
MIP emphasis: balance optimality and feasibility.
MIP search method: dynamic search.
Parallel mode: deterministic, using up to 16 threads.
Root relaxation solution time = 0,00 sec. (1,09 ticks)

        Nodes                                         Cuts/
   Node  Left     Objective  IInf  Best Integer    Best Bound    ItCnt     Gap

*     0+    0                          978,0000        0,0000           100,00%
*     0+    0                          679,0000        0,0000           100,00%
*     0+    0                          665,0000        0,0000           100,00%
      0     0      326,0000   219      665,0000      326,0000      114   50,98%
      0     0      327,5547   219      665,0000     Cuts: 162      260   50,74%
      0     0      329,7041   219      665,0000     Cuts: 162      303   50,42%
      0     0      330,3775   219      665,0000       Cuts: 5      323   50,32%
      0     0      330,7374   219      665,0000       Cuts: 2      344   50,27%
      0     0      330,7717   219      665,0000   ZeroHalf: 1      347   50,26%
      0     0      351,5007   219      665,0000     Cuts: 162      470   47,14%
      0     0      352,7348   219      665,0000      Cuts: 12      484   46,96%
      0     0      352,9230   219      665,0000   ZeroHalf: 5      497   46,93%
      0     0      352,9467   219      665,0000   ZeroHalf: 1      512   46,93%
      0     0      352,9757   219      665,0000       Cuts: 3      521   46,92%
*     0+    0                          659,0000      352,9757            46,44%
*     0+    0                          590,0000      352,9757            40,17%
      0     2      352,9757   227      590,0000      373,1083      521   36,76%
Elapsed time = 0,22 sec. (111,83 ticks, tree = 0,02 MB, solutions = 5)
   3849  1005        cutoff            590,0000      563,2905   122174    4,53%

Clique cuts applied:  80
Cover cuts applied:  363
Mixed integer rounding cuts applied:  52
Zero-half cuts applied:  17
Gomory fractional cuts applied:  7

Root node processing (before b&c):
  Real time             =    0,22 sec. (111,44 ticks)
Parallel b&c, 16 threads:
  Real time             =    0,41 sec. (280,12 ticks)
  Sync time (average)   =    0,14 sec.
  Wait time (average)   =    0,00 sec.
                          ------------
Total (root+branch&cut) =    0,63 sec. (391,56 ticks)
